c :: WCTIME=769.504
c :: command line :: ./optimal-finder cvc-add7to3.cnf -greedy
c :: version :: 160
c :: reference filename :: cvc-add7to3.cnf
c :: reference encoding :: 68
c i 3 4 6 9 10 12 2 14 25 28 0
c :: reference encoding :: variables :: 27 :: clauses :: 68
c Iteration: 1	 MinCls: 254
c Iteration: 2	 MinCls: 196
c Iteration: 3	 MinCls: 154
c Iteration: 4	 MinCls: 144
c Iteration: 5	 MinCls: 136
c Iteration: 6	 MinCls: 136
c i 3 4 6 9 10 12 2 14 25 28 17 20 15 18 0
c aux 17 20 15 18
c :: optimal encoding :: variables :: 14 :: clauses :: 154
c :: optimal minimal encoding :: 136
p cnf 28 136
-18 9 0
-18 10 0
20 -18 0
-15 3 0
-15 4 0
-15 17 0
-10 -9 18 0
-6 -3 17 0
-20 12 18 0
-3 -4 15 0
-17 6 15 0
-6 -4 17 0
-12 -9 20 0
-28 -25 17 0
-28 -25 20 0
-17 25 28 0
-17 -20 28 0
25 -20 28 0
-12 -10 20 0
-17 4 3 0
-20 10 9 0
-28 20 17 0
-3 14 28 25 0
-12 -3 28 25 0
-10 -3 28 25 0
-10 -4 28 25 0
-10 -6 28 25 0
-10 -2 28 25 0
-10 14 28 25 0
-28 -25 2 6 0
-28 -25 2 12 0
-28 -25 -14 2 0
-28 -25 2 15 0
-28 -25 2 18 0
-28 12 6 -25 0
-28 -25 -14 6 0
-28 6 -25 18 0
14 -9 28 25 0
-6 -9 28 25 0
-28 -25 15 18 0
-3 -9 28 25 0
-17 14 28 -9 0
-3 -20 28 14 0
-3 -12 28 -18 0
-9 -4 28 25 0
-9 -2 28 25 0
-9 -15 28 -6 0
-28 -25 -14 18 0
-28 -14 18 17 0
-17 -2 28 -9 0
-28 -25 12 15 0
-28 -25 -14 12 0
-2 14 28 25 0
-2 -12 28 25 0
-2 -6 28 25 0
-3 -2 28 25 0
-12 -17 28 -2 0
-2 -12 28 -18 0
-2 -4 28 25 0
-17 -2 28 14 0
-20 -2 28 14 0
-17 -2 28 -10 0
-6 -20 28 -2 0
-2 -15 28 -6 0
-3 -20 28 -2 0
-4 -20 28 -2 0
-28 -14 17 12 0
-28 2 17 12 0
-28 15 -14 -25 0
-28 15 -14 20 0
-12 -4 28 25 0
-4 -12 28 -18 0
-12 -6 28 25 0
-12 -15 28 -6 0
-6 -12 28 -18 0
-28 2 17 18 0
-28 15 2 20 0
-28 -14 2 17 0
-28 -14 2 20 0
-4 -20 28 14 0
-28 -14 20 6 0
-12 14 28 25 0
-6 14 28 25 0
-4 14 28 25 0
-12 -17 28 14 0
-17 14 28 -10 0
-10 -15 28 -6 0
-6 -20 28 14 0
14 -12 28 -18 0
-15 14 28 -6 0
-28 2 20 6 0
-12 -4 28 -2 14 0
-3 -9 28 -2 14 0
-6 -9 28 -2 14 0
-28 12 -14 15 2 0
-4 -9 28 -2 14 0
-12 -3 28 -2 14 0
-12 -2 28 -6 14 0
-6 -10 28 -2 14 0
-3 -10 28 -2 14 0
-28 -14 15 18 2 0
-28 -14 6 18 2 0
-4 -10 28 -2 14 0
-28 6 2 12 -14 0
25 -2 14 -20 -17 0
25 -2 -15 -20 -6 0
25 -2 -18 -12 -17 0
25 -15 -20 14 -6 0
25 -18 -12 -17 14 0
-28 9 12 6 10 0
-28 9 10 2 12 0
-28 2 4 3 6 0
-28 9 10 -14 12 0
-28 4 3 -14 6 0
-28 4 3 12 6 0
-28 9 10 15 12 0
-28 3 18 4 6 0
-25 -14 2 20 17 0
25 -18 -12 -15 -6 0
-15 25 -10 14 -2 -6 0
-12 -15 25 14 -2 -6 0
25 -18 -12 -6 14 -2 0
25 -18 -12 -3 14 -2 0
25 -18 -12 -4 14 -2 0
-15 25 14 -2 -9 -6 0
-25 2 10 9 12 17 0
-25 -14 4 3 6 20 0
-25 -14 10 9 17 12 0
-25 2 4 3 20 6 0
-12 -18 -2 -15 -6 14 0
-25 -14 2 4 3 6 18 0
-25 -14 2 10 9 6 12 0
-25 -14 2 9 12 15 10 0
-25 -14 4 3 12 6 2 0
-25 10 9 4 3 12 6 0
12 -14 2 10 9 4 3 6 0
